%chk=frag56-conf2.chk
#B3LYP/6-31G* Integral=(Grid=UltraFine) freq Opt pop=none

Optimization for frag56-conf2

0  1
   C    1.0421852715 -0.7009543790  1.4502357092 
   C    2.5374688869 -0.8608806893  1.4939314149 
   O    3.0821334373 -1.9272322766  1.7550563928 
   N    3.2145853113  0.2970110511  1.1938155330 
   C    4.6564745432  0.3673149971  1.2289208494 
   C    5.1121663859  0.7651090317  2.5978642420 
   C    5.8762962502  0.0296544136  3.4876612703 
   C    6.1391936579  0.7395029674  4.6971749240 
   C    5.5548204962  1.9784483757  4.6776121434 
   Cl    5.6043257334  3.1546850006  5.9275513045 
   S    4.7256616508  2.3123562333  3.2416327084 
   H    0.5633640146 -1.6571262112  1.6789964473 
   H    0.7336720497 -0.3841380002  0.4498412524 
   H    0.7233465666  0.0398580462  2.1884827763 
   H    2.7030348315  1.1677748093  1.1502800654 
   H    4.9731065899  1.1076539081  0.4868121515 
   H    5.0807490560 -0.6018618097  0.9443744321 
   H    6.2293961781 -0.9741940723  3.2782159218 
   H    6.7182240226  0.3543933002  5.5269482121 



