%chk=frag50-conf2.chk
#B3LYP/6-31G* Integral=(Grid=UltraFine) freq Opt pop=none

Optimization for frag50-conf2

1  1
   C    1.0041889393  0.5597174475 -0.2061980272 
   N    2.4595373336  0.6157077713 -0.1436481906 
   C    3.0367418717  1.5316521066  0.8323824072 
   C    3.1669721621 -0.1687933314 -1.0443739762 
   O    2.5935000654 -0.9244756110 -1.8372248656 
   C    4.6997500375 -0.1077376771 -1.0718101918 
   H    5.0700205649  0.8322110402 -0.6630208515 
   C    5.2324371572 -1.2932271035 -0.2466383984 
   C    6.7549890543 -1.4505805830 -0.2727246772 
   C    7.5137075789 -0.2742707886  0.3213800070 
   N    8.9591699905 -0.4733640901  0.1507025862 
   C    9.6516909349 -0.1216922683 -0.9469262244 
   N    9.0759309081  0.4720659663 -1.9946355704 
   N    10.9628999765 -0.3795769340 -0.9979390758 
   H    11.4459846650 -0.8544687569 -0.2467057411 
   H    11.5115369957 -0.1322091639 -1.8116200619 
   N    5.2449944877 -0.2709666784 -2.4489286489 
   S    5.0647150960  0.9500115012 -3.5803801041 
   C    3.3198187985  0.9872094000 -3.9656485491 
   O    5.4589483204  2.1725201028 -2.9132045772 
   O    5.7872106646  0.4758173953 -4.7380185072 
   H    0.5526832042  0.9956008113  0.6895454025 
   H    0.6690652125 -0.4769661664 -0.3018904951 
   H    0.6802771430  1.1215253634 -1.0880817741 
   H    2.2805004949  2.2359945442  1.1941236478 
   H    3.8515172436  2.1090367875  0.3934345334 
   H    3.4129960125  0.9460271156  1.6761909211 
   H    4.8060894426 -2.2236012120 -0.6491941247 
   H    4.8801812085 -1.2211740227  0.7884521229 
   H    7.0991685530 -1.6286544608 -1.2990103310 
   H    7.0238401053 -2.3584835504  0.2813451607 
   H    7.3143999839 -0.1939225370  1.3954719142 
   H    7.2376693545  0.6891783747 -0.1162660426 
   H    9.4758082434 -0.8768365162  0.9219548598 
   H    8.0803275147  0.6635674017 -2.0323291512 
   H    9.6011512950  0.7470409364 -2.8138896119 
   H    5.0369073897 -1.1832954635 -2.8683369857 
   H    2.7608687659  1.3194769321 -3.0924906268 
   H    3.0114449562 -0.0068342798 -4.2967084178 
   H    3.1634069771  1.7058824353 -4.7716910592 



