%chk=frag55-conf1.chk
#B3LYP/6-31G* Integral=(Grid=UltraFine) freq Opt pop=none

Optimization for frag55-conf1

0  1
   C    2.1425523758 -0.8512158394 -0.2252361327 
   C    2.6934547424 -1.7791283131  1.9379743338 
   C    0.9916409254 -0.2756085694  0.3157263994 
   C    1.5418565273 -1.2031716108  2.4795947075 
   C    3.0100529194 -1.6013209820  0.5827557445 
   C    0.7013312578 -0.4546397626  1.6628824472 
   C    3.7294516563 -3.7978341579 -1.8713672161 
   C    3.3729369640 -5.2266163826 -2.1796898842 
   C    4.2401142120 -2.2433698177 -0.0083088297 
   N    3.9262595177 -3.5522570610 -0.5365717411 
   O    3.8071076870 -2.9351351261 -2.7436397076 
   O   -0.4316273332  0.1221966222  2.1545684338 
   H    2.3604679108 -0.7152572870 -1.2843817472 
   H    3.3446769714 -2.3699188232  2.5815219879 
   H    0.3258962035  0.3066854179 -0.3171958923 
   H    1.3171132803 -1.3506383896  3.5333015919 
   H    2.2963416576 -5.3648066521 -2.0495524406 
   H    3.6474280357 -5.4559688568 -3.2129986286 
   H    3.9089541435 -5.9129190445 -1.5179594755 
   H    4.6659722328 -1.6048480272 -0.7904409766 
   H    5.0103206635 -2.3733246326  0.7599713206 
   H    3.8048961163 -4.3105163574  0.1281523854 
   H   -0.4980183542 -0.0932125077  3.1073627472 



