%chk=frag0-conf1.chk
#B3LYP/6-31G* Integral=(Grid=UltraFine) freq Opt pop=none

Optimization for frag0-conf1

0  1
   C    1.2337501156 -2.0062203401 -1.6991451483 
   N    2.6640964933 -1.8692883687 -1.6098214330 
   C    3.2435996940 -0.7532798945 -1.0476673462 
   O    2.5827594750  0.1776063278 -0.5891629283 
   C    4.7808636326 -0.8011830336 -0.9077114966 
   H    5.1224119269  0.2370217249 -1.0095172994 
   C    5.1761671508 -1.3001830674  0.4782641815 
   N    5.4469856840 -1.5076732537 -2.0148481675 
   C    5.6599840185 -2.8614026709 -2.0735089771 
   C    6.3224849444 -3.3462223207 -3.3326780519 
   O    5.3191058304 -3.6453287502 -1.1924200658 
   H    1.0029249935 -2.9660413448 -2.1665817926 
   H    0.8324138115 -1.1898664103 -2.3061210825 
   H    0.7957066647 -1.9616542264 -0.6982102235 
   H    3.2436325139 -2.6959650214 -1.7112445144 
   H    4.8078881975 -0.6201366003  1.2536372128 
   H    6.2646990871 -1.3715359405  0.5733692413 
   H    4.7461211908 -2.2818674414  0.7004097534 
   H    5.5779234826 -0.9690384983 -2.8619564163 
   H    6.3374561342 -2.5777268304 -4.1092985044 
   H    5.7594818667 -4.2047394044 -3.7110286250 
   H    7.3474119438 -3.6515713901 -3.1069159842 



