%chk=frag22-conf2.chk
#B3LYP/6-31G* Integral=(Grid=UltraFine) freq Opt pop=none

Optimization for frag22-conf2

0  1
   C   -4.0428647995  3.1521503925 -3.6839368343 
   C   -2.9925830364  2.2595858574 -3.8842728138 
   C   -4.9324617386  2.9526312351 -2.6310055256 
   C   -2.8279128075  1.1692289114 -3.0285799503 
   C   -4.7691836357  1.8629888296 -1.7742363214 
   C   -3.7082626820  0.9637379646 -1.9562239647 
   C   -0.3008304536  0.3329881430 -0.3634013832 
   C   -3.5256638527 -0.2145377696 -1.0298711061 
   N   -1.4132759571  1.1333452463  0.1719486266 
   O   -3.7090797424  1.2915395498  1.1814450026 
   O   -2.4475736618 -0.8688224554  1.3199206591 
   S   -2.8396730423  0.3065629303  0.5577999949 
   H   -4.1711301804  4.0017809868 -4.3523764610 
   H   -2.3011381626  2.4107024670 -4.7117662430 
   H   -5.7570333481  3.6467266083 -2.4766268730 
   H   -2.0051243305  0.4788467884 -3.2115411758 
   H   -5.4783606529  1.7234612703 -0.9580313563 
   H    0.0059849964 -0.4348030388  0.3511592746 
   H    0.5531867146  0.9948046803 -0.5357137918 
   H   -0.5657564998 -0.1267307997 -1.3172177076 
   H   -2.8560550213 -0.9700940847 -1.4518053532 
   H   -4.4876842499 -0.6955025792 -0.8243130445 
   H   -1.6312867403  1.9554653168 -0.4063102305 



