%chk=frag14-conf2.chk
#B3LYP/6-31G* Integral=(Grid=UltraFine) freq Opt pop=none

Optimization for frag14-conf2

1  1
   C    5.7354326248 -4.4946575165 -1.4349334240 
   C    0.2987674177 -1.2899068594 -0.0903107598 
   C   -0.0611522198 -2.5349853039 -0.8959995508 
   C    1.4478693008 -0.5167019367 -0.7304520011 
   C    1.1611880064 -3.4230940342 -1.1292335987 
   C    2.6637196541 -1.4098570347 -0.9777694345 
   C    2.2927129269 -2.6455674171 -1.8132972717 
   C    8.0391187668 -3.6925961971 -1.7724237442 
   C    6.3880934715 -2.1296653748 -0.8248527050 
   C    3.5242090225 -3.5042500496 -2.1826961040 
   C    4.2508177757 -4.2422351837 -1.0466310978 
   N    6.6687698364 -3.4692118168 -1.3274891376 
   N    3.5947928429 -5.5633368492 -0.8182210922 
   O    6.0671396255 -5.6197910309 -1.8431849480 
   H   -0.5794046521 -0.6405290961 -0.0017268088 
   H    0.5819034576 -1.5848014355  0.9276967049 
   H   -0.8343051672 -3.1041135788 -0.3675792515 
   H   -0.4872130156 -2.2366046906 -1.8617286682 
   H    1.1122969389 -0.0868303031 -1.6822984219 
   H    1.7323620319  0.3218758702 -0.0848773569 
   H    1.4952161312 -3.8033895493 -0.1572346091 
   H    0.8706921935 -4.2841172218 -1.7418569326 
   H    3.4366464615 -0.8266035914 -1.4916394949 
   H    3.0774457455 -1.7149312496 -0.0098411879 
   H    1.8956704140 -2.2744321823 -2.7698750496 
   H    8.2758111954 -2.9663667679 -2.5558161736 
   H    8.1892862320 -4.6991753578 -2.1699118614 
   H    8.7124271393 -3.5449221134 -0.9228513837 
   H    7.1535091400 -1.8582873344 -0.0915363133 
   H    5.4153718948 -2.0570502281 -0.3454177678 
   H    6.4258265495 -1.4302471876 -1.6650277376 
   H    3.2175052166 -4.2319374084 -2.9472179413 
   H    4.2334861755 -2.8419787884 -2.6969478130 
   H    4.1971020699 -3.7236888409 -0.0879757330 
   H    2.5948824883 -5.5170116425 -0.6424945593 
   H    4.0311489105 -6.0414338112 -0.0291915126 
   H    3.7541716099 -6.1689825058 -1.6262620687 



