%chk=frag2-conf0.chk
#B3LYP/6-31G* Integral=(Grid=UltraFine) freq Opt pop=none SCRF

Optimization for frag2-conf0

0  1
   C    3.7715187073 -5.6815400124 -0.8141438365 
   C    5.5337996483 -1.3325628042  0.9768731594 
   C   -0.8768407106 -2.6823651791 -2.4145750999 
   C    0.1085697785 -1.6966719627 -3.0290906429 
   C   -0.3045021296 -3.3209133148 -1.1557402611 
   C    1.4562404156 -2.3562660217 -3.3052697182 
   C    1.0516979694 -3.9771046638 -1.4121145010 
   C    2.0597715378 -3.0052034855 -2.0425608158 
   C    3.2772057056 -8.0542192459 -1.2425460815 
   C    4.5047950745 -6.7930064201 -2.9673454762 
   C    5.1570730209 -2.0704364777 -0.3315387666 
   C    3.4021301270 -3.6778626442 -2.4192662239 
   C    4.2646536827 -4.2895193100 -1.2990226746 
   N    3.8453614712 -6.7799482346 -1.6650758982 
   N    4.3814201355 -3.3477642536 -0.1379590183 
   O    5.9892396927 -0.1572500616  0.8718315363 
   O    3.3411293030 -5.8032259941  0.3440797627 
   O    5.3421216011 -1.9944351912  2.0459530354 
   H   -1.8140091896 -2.1676411629 -2.1748821735 
   H   -1.1182579994 -3.4641919136 -3.1450929642 
   H   -0.3038147986 -1.2966383696 -3.9622354507 
   H    0.2494139522 -0.8460877538 -2.3509497643 
   H   -0.1952778101 -2.5561060905 -0.3767195344 
   H   -1.0067684650 -4.0688104630 -0.7703035474 
   H    1.3301752806 -3.1147437096 -4.0887670517 
   H    2.1468832493 -1.6024713516 -3.7023453712 
   H    1.4266099930 -4.3446969986 -0.4536641836 
   H    0.9153248668 -4.8486628532 -2.0644643307 
   H    2.2515635490 -2.1969907284 -1.3261291981 
   H    2.6033389568 -8.4165153503 -2.0246822834 
   H    2.7153234482 -7.9677371979 -0.3093123138 
   H    4.0919103622 -8.7705545425 -1.1014442444 
   H    5.2203989029 -7.6206488609 -2.9899899960 
   H    5.0443596840 -5.8708233833 -3.1793532372 
   H    3.7452187538 -6.9507346153 -3.7385389805 
   H    6.0812358856 -2.3351323605 -0.8552326560 
   H    4.5487222672 -1.4180849791 -0.9641992450 
   H    3.1939382553 -4.4393458366 -3.1796436310 
   H    4.0202403069 -2.9238045216 -2.9262042046 
   H    5.2928290367 -4.4268779755 -1.6518167257 
   H    4.8388333321 -3.8439526558  0.6409590244 
   H    3.4601938725 -3.1484916210  0.2655431330 


