%chk=frag3-conf2.chk
#B3LYP/6-31G* Integral=(Grid=UltraFine) freq Opt pop=none

Optimization for frag3-conf2

1  1
   C    4.1934674559  3.2708882628  0.9107558530 
   N    3.9041780237  2.1834817594 -0.0180965217 
   C    2.6098078889  2.2016166388 -0.6905124529 
   C    4.9366832225  1.3183334479 -0.3431977755 
   O    6.0447162788  1.3583381583  0.1966306163 
   C    4.6821144938  0.1942319668 -1.3694946933 
   H    3.6173525839  0.0065838575 -1.5125861697 
   N    5.2287583099 -1.0909368538 -0.7701209414 
   H    5.0004782596 -1.9260379609 -1.3191565242 
   H    6.2530173723 -1.0099083621 -0.6710685627 
   H    4.8764530817 -1.2125735258  0.1893623871 
   C    5.4035269440  0.4269597717 -2.7117386765 
   C    5.0008405533  1.6785159118 -3.4527623155 
   C    5.3159363986  2.9477704814 -2.9416925997 
   C    4.8837773453  4.1066456319 -3.5845855202 
   C    4.2072422110  4.0162030487 -4.7952446292 
   C    3.9546040702  2.7663549477 -5.3560615613 
   C    4.3309821531  1.6015605294 -4.6814640675 
   H    3.3288395585  3.9279402148  1.0375153187 
   H    5.0373481732  3.8543305861  0.5299472869 
   H    4.4656599204  2.8458834852  1.8815118422 
   H    1.9799983441  3.0170843255 -0.3284582945 
   H    2.1023728916  1.2518860569 -0.4997661337 
   H    2.7579646313  2.3140107568 -1.7657992555 
   H    5.2060665981 -0.4435614567 -3.3536281597 
   H    6.4920582987  0.4489084096 -2.5721122456 
   H    5.8993753750  3.0667492010 -2.0309007397 
   H    5.0909723771  5.0810433363 -3.1474969328 
   H    3.8974846249  4.9214292719 -5.3125742130 
   H    3.4673293992  2.7033707709 -6.3270137451 
   H    4.1094881638  0.6430924362 -5.1470207039 



