%chk=frag26-conf2.chk
#B3LYP/6-31G* Integral=(Grid=UltraFine) freq Opt pop=none

Optimization for frag26-conf2

0  1
   C    1.1225333815  0.9313467562  0.5800756470 
   N    2.5495783742  0.6439459806  0.4995481518 
   C    3.1261940746 -0.1058182650  1.6069676875 
   C    3.2364714264  1.1200452824 -0.6176410341 
   O    2.6258188286  1.6383577572 -1.5608563106 
   C    4.7717044484  0.9749582954 -0.7121317819 
   H    5.2028587683  1.1581501521  0.2787998068 
   C    5.2357101824 -0.4256634403 -1.1723755315 
   C    4.9731938331 -0.8652259541 -2.6472622101 
   C    5.8360212784 -2.1021802430 -2.9861356704 
   C    5.3839988349 -3.3412251398 -2.2147732120 
   C    3.9215562458 -3.6591645564 -2.5120217416 
   C    3.0099898830 -2.4573337638 -2.2696994715 
   C    3.5130663788 -1.2076746871 -2.9893021484 
   N    5.3786949237  1.9692321381 -1.6655586855 
   S    5.3908419795  3.5887570793 -1.1685966361 
   C    6.2434397307  4.3313163364 -2.5466899295 
   O    4.0356075927  4.0775848780 -1.1704298914 
   O    6.2282616554  3.6879848824  0.0073501829 
   H    0.6216188391  0.2456059086  1.2702674660 
   H    0.6538217579  0.8351068741 -0.4028830183 
   H    0.9946734310  1.9588298406  0.9367572218 
   H    2.4167409739 -0.1715319336  2.4402714348 
   H    4.0437983744  0.3604534684  1.9674048476 
   H    3.3370126719 -1.1208397763  1.2595846304 
   H    4.8424908385 -1.1752387204 -0.4818317390 
   H    6.3275627014 -0.4391920046 -1.0374920365 
   H    5.2970941576 -0.0633581795 -3.3217909880 
   H    6.8938373977 -1.8982316768 -2.7863520507 
   H    5.7603583002 -2.3097239973 -4.0626492388 
   H    5.5175480727 -3.1883147563 -1.1378082917 
   H    6.0126414549 -4.1963822345 -2.4851789512 
   H    3.5920025054 -4.5036127319 -1.8970989975 
   H    3.8322299230 -3.9739605718 -3.5593933389 
   H    2.9355538269 -2.2604559826 -1.1947840918 
   H    1.9973467916 -2.6947380000 -2.6156686845 
   H    2.8434975193 -0.3715647549 -2.7917176458 
   H    3.4407122804 -1.3817245463 -4.0725458946 
   H    4.8832813123  1.9043531474 -2.5586144103 
   H    5.7187028891  4.0662407766 -3.4681850954 
   H    7.2738002677  3.9735556739 -2.5698312500 
   H    6.2229397356  5.4156427116 -2.4185864445 



