%chk=frag2-conf2.chk
#B3LYP/6-31G* Integral=(Grid=UltraFine) freq Opt pop=none

Optimization for frag2-conf2

0  1
   C    0.5543581977 -0.3276146835 -0.2693936465 
   N    1.9970423440 -0.0778821113 -0.1593166937 
   C    2.3523980203  1.0814456223  0.6567037951 
   C    2.8294151040 -0.9045240017 -0.9175236510 
   O    2.3248296678 -1.8686629976 -1.5244357232 
   C    4.4047287716 -0.7289097405 -1.0898444577 
   H    4.6502337964  0.3137471442 -1.2911318156 
   C    5.2442691109 -1.2608023798  0.0977078022 
   C    6.8119275739 -1.3639607787 -0.0444945875 
   C    7.5660410293 -0.2325434894 -0.7616101749 
   C    7.4922079469  1.0920141585 -0.0237856146 
   C    8.0681610376  0.9629431835  1.3802212239 
   C    7.5128364368 -0.2372790158  2.1479656032 
   C    7.4612110730 -1.5405330841  1.3425613322 
   N    4.8600984087 -1.5717455206 -2.3146783038 
   H    5.8833021359 -1.6229939848 -2.3491638408 
   H    4.4515436007 -2.5107480569 -2.2587795806 
   C    4.5071249087 -0.9587082880 -3.6632517939 
   C    5.0383511664  0.4804279389 -3.8354498919 
   O    6.3037182547  0.5350268216 -3.8485443664 
   O    4.1730577589  1.3788304105 -3.7164166248 
   H   -0.0308471661  0.3186638923  0.3953300234 
   H    0.3289168380 -1.3685572845 -0.0211642760 
   H    0.2455989183 -0.1285608331 -1.3014983385 
   H    1.4813289827  1.7464902255  0.7613293105 
   H    3.1678274914  1.6519716378  0.2169157392 
   H    2.6130821636  0.7405054934  1.6640048605 
   H    4.9000217415 -2.2824342143  0.3238577152 
   H    4.9877398468 -0.6752182977  0.9845811522 
   H    7.0229550422 -2.2831149932 -0.6115118435 
   H    7.2229060969 -0.1095337080 -1.7838986574 
   H    8.6268088587 -0.5158683494 -0.8514921537 
   H    6.4539412883  1.4357663643  0.0218300046 
   H    8.0545409561  1.8540388692 -0.5782001049 
   H    7.8578752410  1.8822705646  1.9396245585 
   H    9.1607248185  0.8822832505  1.3159230229 
   H    6.5032770612  0.0088520486  2.4924682047 
   H    8.1175774435 -0.3954460313  3.0482028355 
   H    6.9185706735 -2.3027381489  1.9134711992 
   H    8.4836939874 -1.9229801351  1.2160456349 
   H    3.4244102040 -1.0278481712 -3.7859272236 
   H    4.9825324610 -1.6076682159 -4.4096536854 



