%chk=frag48-conf1.chk
#B3LYP/6-31G* Integral=(Grid=UltraFine) freq Opt pop=none

Optimization for frag48-conf1

0  1
   C    1.0155107531  0.6035781643  1.0209756835 
   N    2.5010540797  0.5100781593  1.0153843682 
   C    3.0947648616  1.7252041840  1.6151013059 
   S    3.0313809591 -0.9639425424  1.6803227471 
   O    2.5785344601 -1.0100757836  3.0493321903 
   O    2.7160209949 -2.0079026067  0.7319669365 
   N    4.7061610617 -0.7408404974  1.6297598992 
   C    5.4361980684 -1.5355636727  2.5711780272 
   C    5.8084677255 -2.8469059775  2.2700043223 
   C    6.4654000237 -3.6201716354  3.2337606331 
   C    6.7425599974 -3.0796390546  4.4900467667 
   Cl    7.5514584714 -4.0312503476  5.6735982045 
   C    6.3593822499 -1.7754742540  4.7962854725 
   C    5.6908070689 -1.0086218643  3.8392840883 
   H    0.6920135910  1.5302161603  0.5357487939 
   H    0.6316493619  0.6087547521  2.0474641692 
   H    0.5700955029 -0.2288406099  0.4694148619 
   H    2.6650001965  2.6185307413  1.1483359367 
   H    4.1697014851  1.7641197746  1.4188513874 
   H    2.9086773772  1.7729467084  2.6911095254 
   H    4.9965332534 -0.9013442593  0.6649937254 
   H    5.5822759130 -3.2837720094  1.3010086187 
   H    6.7493589038 -4.6441480666  3.0042391697 
   H    6.5664410425 -1.3544056996  5.7764476159 
   H    5.3641516476 -0.0029085774  4.0890984910 



