%chk=frag37-conf1.chk
#B3LYP/6-31G* Integral=(Grid=UltraFine) freq Opt pop=none SCRF

Optimization for frag37-conf1

0  1
   C    1.9730170965 -4.6806159019  2.9765732288 
   C    0.2567698956 -1.5123114586  5.4222025871 
   C    2.4457032681 -2.3173279762 -1.3050282001 
   C    2.0700318813 -1.3176476955 -0.2158987671 
   C    2.5555086136 -3.7397906780 -0.7657900453 
   C    0.8140532970 -1.7543858290  0.5358974934 
   C    1.3022899628 -4.1516380310  0.0064304555 
   C    0.9391232133 -3.1681430340  1.1438609362 
   C    3.2075991631 -6.4478616714  4.1705446243 
   C    4.3846473694 -4.3377113342  3.6850166321 
   C    0.2873895764 -2.2526576519  4.0619869232 
   C    1.9437988997 -3.2618722916  2.3287632465 
   N    3.1406755447 -5.0995426178  3.6191444397 
   N    1.6379032135 -2.2265384197  3.3764123917 
   O   -0.8736798167 -1.2593170404  5.9277706146 
   O    0.9631024599 -5.3987827301  2.9719104767 
   O    1.4026523829 -1.2266669273  5.8975248337 
   H    1.6860808134 -2.2901163101 -2.0962965488 
   H    3.3945009708 -2.0223667622 -1.7671865225 
   H    2.9055464268 -1.1997771263  0.4834746122 
   H    1.8999849558 -0.3343493044 -0.6694400907 
   H    2.7130229473 -4.4330353737 -1.6001958847 
   H    3.4381492138 -3.8231489658 -0.1215104982 
   H    0.5638463497 -1.0091965199  1.2969572544 
   H   -0.0303167608 -1.7519025803 -0.1667022109 
   H    0.4594272375 -4.1986341476 -0.6960830092 
   H    1.4310773611 -5.1696271896  0.3884538710 
   H   -0.0541529655 -3.4578320980  1.5123318434 
   H    3.9767763615 -7.0078611374  3.6301960945 
   H    2.2585413456 -6.9821166992  4.0839185715 
   H    3.4788856506 -6.3825035095  5.2283821106 
   H    4.8634190559 -4.5116691589  4.6534633636 
   H    4.2260665894 -3.2655799389  3.5752940178 
   H    5.0428261757 -4.6877031326  2.8846211433 
   H   -0.4316348732 -1.8048032522  3.3707749844 
   H    0.0255119037 -3.2979424000  4.2446622849 
   H    2.9425115585 -3.0146727562  1.9630036354 
   H    1.8175517321 -1.2805408239  3.0280385017 
   H    2.3117735386 -2.3100304604  4.1516575813 


