%chk=frag24-conf1.chk
#B3LYP/6-31G* Integral=(Grid=UltraFine) freq Opt pop=none

Optimization for frag24-conf1

0  1
   C    1.0476921018  0.0287742813  0.0331701318 
   C    2.5751110860 -0.0274484124  0.0480458267 
   H    2.8968740236  0.2838748121  1.0372980381 
   N    2.9955627639 -1.4322571073 -0.1450686704 
   S    4.6094443789 -1.8507273527 -0.0554956893 
   C    5.3521404297 -1.1593916399 -1.5215509390 
   O    5.1748563814 -1.1874431207  1.0971244172 
   O    4.6481019980 -3.2908975767 -0.1979997558 
   C    3.0747434511  0.8820903501 -1.0805868381 
   O    2.8011088254  0.5772836697 -2.2490900335 
   N    3.8557002408  1.9940015783 -0.7906681457 
   C    4.3659823952  2.3794482424  0.5200724613 
   C    4.3249161287  2.8244313857 -1.8935554115 
   H    0.6270518644 -0.5334345958  0.8728237377 
   H    0.6383132945 -0.3983939661 -0.8901452413 
   H    0.6973289386  1.0646867574  0.1013509703 
   H    2.4635526362 -1.9826527496 -0.8191966971 
   H    5.3568549931 -0.0749268528 -1.4599267523 
   H    4.8138903578 -1.5157358493 -2.4006849581 
   H    6.3909442373 -1.4938160442 -1.5589472751 
   H    3.9968269483  1.7728886144  1.3412625961 
   H    4.0821383910  3.4189674713  0.7085922335 
   H    5.4576791266  2.3016594842  0.5018382124 
   H    3.9446398577  2.4953236165 -2.8635913916 
   H    5.4188844936  2.7910333393 -1.9190358712 
   H    3.9979488275  3.8537925811 -1.7198420372 



