%chk=frag29-conf2.chk
#B3LYP/6-31G* Integral=(Grid=UltraFine) freq Opt pop=none

Optimization for frag29-conf2

0  1
   C    1.0318791501  1.0791629466 -1.0264465097 
   C    2.5179338761  1.1861590940 -1.2380369098 
   O    3.0275976259  1.1794918664 -2.3535548645 
   N    3.2311894664  1.2303022453 -0.0635263008 
   C    4.6700940204  1.3952086351 -0.0685105936 
   C    5.1386630283  2.8365821854  0.0203727357 
   C    6.5058934039  3.0884817744  0.0899854195 
   C    6.9290727706  4.4007179453  0.2587365406 
   Cl    8.6082495973  4.7402587621  0.4230580550 
   C    6.0082161715  5.4347138903  0.3157974531 
   C    4.6719843508  5.1029994485  0.2068212727 
   N    4.2179489952  3.8345735201  0.0876628976 
   H    0.5252792967  1.0419066801 -1.9950560867 
   H    0.6639458237  1.9439088477 -0.4681916639 
   H    0.8053045415  0.1598907914 -0.4781049465 
   H    2.7437452153  1.5107536648  0.7764139623 
   H    5.0928395386  0.9246428219 -0.9625943695 
   H    5.0383889879  0.8618653947  0.8149407896 
   H    7.2243340094  2.2774247021  0.0332340070 
   H    6.3167110754  6.4654899317  0.4435187256 
   H    3.9035405289  5.8710692484  0.2202194159 



