%chk=frag35-conf1.chk
#B3LYP/6-31G* Integral=(Grid=UltraFine) freq Opt pop=none

Optimization for frag35-conf1

0  1
   C    6.8396376374  1.4044300153  5.2015418968 
   N    6.0998061877  0.2164859485  4.8586851016 
   C    5.4426200273  0.1082184530  3.6556609553 
   O    5.4014780090  1.0047797610  2.8187717489 
   C    4.7467463804 -1.2165808248  3.4402183386 
   C    5.1581853138 -1.8268133979  2.0968513297 
   H    4.7093393301 -1.2336171482  1.3043898680 
   N    4.6032882862 -3.2160359835  2.0242488520 
   S    4.6543923408 -4.0501569935  0.5754300540 
   C    6.3296952181 -4.6421319864  0.4340993797 
   O    3.7994332458 -5.2025520636  0.7753598596 
   O    4.3929926407 -3.1026640330 -0.4818028216 
   C    6.6963774885 -1.9108483436  2.0400287651 
   O    7.2880660335 -2.5442570226  2.9249717258 
   N    7.3880754905 -1.3652879328  0.9668707405 
   C    6.8274281717 -0.5333867243 -0.0905542537 
   C    8.8175642226 -1.6247451517  0.8484111855 
   H    7.3153098026  1.2568146430  6.1740993741 
   H    6.1491056852  2.2503202109  5.2476780492 
   H    7.5998904002  1.5972123341  4.4393599480 
   H    6.1628060010 -0.5852889610  5.4748665286 
   H    3.6661064026 -1.0262493344  3.4504122335 
   H    4.9521811720 -1.9039987343  4.2686556527 
   H    3.7089334851 -3.3683991284  2.4919162216 
   H    6.5471855971 -5.3295399861  1.2512333354 
   H    7.0224074416 -3.8095100753  0.4252168988 
   H    6.4188577320 -5.1525297874 -0.5273948213 
   H    5.7680008165 -0.3235653978  0.0215324832 
   H    6.9858103200 -1.0399683251 -1.0475767648 
   H    7.3620553772  0.4213973680 -0.0968687669 
   H    9.1947415271 -2.2796526524  1.6379167730 
   H    9.3588351097 -0.6755793786  0.8831255368 
   H    9.0008612784 -2.1125753272 -0.1148651082 



