%chk=frag1-conf0.chk
#B3LYP/6-31G* Integral=(Grid=UltraFine) freq Opt pop=none

Optimization for frag1-conf0

0  1
   C    5.0387048569  0.4814080787 -3.1273322009 
   C    4.4695641561 -0.1303270190 -1.8733136407 
   O    3.2744693160  0.0184548891 -1.6078357148 
   N    5.3302457895 -0.8578271880 -1.0599634044 
   C    6.7544069703 -1.0399304833 -1.3240503481 
   C    4.8053568373 -1.3545114999  0.2367800617 
   H    3.7131047665 -1.4436263253  0.1735368385 
   C    5.0935367841 -0.3325839389  1.3464140299 
   C    5.3124510990 -2.7629965724  0.6564180032 
   O    5.8442594888 -2.9267951327  1.7600392843 
   N    5.1037301065 -3.8409380035 -0.2008705108 
   C    4.4715334761 -3.7792347217 -1.5103285599 
   C    5.6022879645 -5.1497754897  0.1908257883 
   H    4.2361683806  0.9682815042 -3.6905434686 
   H    5.4740341005 -0.2888955778 -3.7686958046 
   H    5.7820794651  1.2391412151 -2.8662573892 
   H    7.0467623086 -0.6805815814 -2.3106256238 
   H    6.9982110483 -2.1042307270 -1.2787867322 
   H    7.3317562156 -0.4999387366 -0.5704437550 
   H    4.6680309811 -0.6598822441  2.3020002244 
   H    4.6683499734  0.6472049858  1.1064303262 
   H    6.1710206042 -0.2015361010  1.4974718061 
   H    3.9933663650 -2.8254570380 -1.7146726674 
   H    3.7025250506 -4.5545812531 -1.5675795802 
   H    5.2349767476 -3.9724213806 -2.2709411920 
   H    6.0279760497 -5.1549765430  1.1971925364 
   H    6.3770797910 -5.4555155374 -0.5184242428 
   H    4.7746186558 -5.8641904103  0.1595017513 



