%chk=frag0-conf2.chk
#B3LYP/6-31G* Integral=(Grid=UltraFine) freq Opt pop=none

Optimization for frag0-conf2

0  1
   C    1.1795194359 -2.1279270802 -0.9933243641 
   N    2.6092371607 -1.9914410241 -0.9333652270 
   C    3.2095756062 -0.7463059764 -0.9874732920 
   O    2.5709182905  0.3019164983 -0.9372210826 
   C    4.7530401475 -0.7863567088 -0.9437866198 
   H    5.1329221034  0.2288532343 -1.1090323315 
   C    5.1988929146 -1.3020030425  0.4241274382 
   N    5.2773231475 -1.6610077071 -1.9986836788 
   C    5.2217786434 -1.2533130153 -3.3159052230 
   C    5.9255918627 -2.1683887313 -4.2810765675 
   O    4.6222566802 -0.2527770871 -3.6957555553 
   H    0.9258553188 -3.1873181539 -0.9145427236 
   H    0.8218359377 -1.7259071022 -1.9448028878 
   H    0.7251883616 -1.5715746693 -0.1690916111 
   H    3.1942123107 -2.8127430799 -1.0041098167 
   H    4.8002052641 -0.6782201214  1.2307121561 
   H    6.2911128882 -1.3135308782  0.5013727171 
   H    4.8533879159 -2.3280239903  0.5996341179 
   H    6.0190448238 -2.3023797441 -1.7513911493 
   H    6.5743199780 -2.8809237544 -3.7652355384 
   H    6.5417359567 -1.5708770889 -4.9591495114 
   H    5.1774643700 -2.7210820338 -4.8556698466 



