%chk=frag18-conf2.chk
#B3LYP/6-31G* Integral=(Grid=UltraFine) freq Opt pop=none

Optimization for frag18-conf2

1  1
   C    2.5447512466 -2.2525206183 -2.1891651317 
   C    2.8205893145 -1.8072750603 -0.7824271562 
   O    1.9795734414 -1.8585966311  0.1099402870 
   N    4.1322478882 -1.4617999098 -0.5458893431 
   C    4.5763701867 -1.0303285274  0.7658476027 
   C    5.0507126744 -2.1805358621  1.6235758360 
   C    5.9920532631 -1.9775730281  2.6348363766 
   C    6.4071146553 -3.0488543527  3.4215429640 
   C    5.8924430065 -4.3171796904  3.1773129220 
   N    4.9801548226 -4.5030761822  2.2010739914 
   C    4.4773074388 -5.8482619841  1.8797493634 
   C    4.5284243580 -3.4637159333  1.4683969097 
   H    1.4875012772 -2.5158504643 -2.2859148188 
   H    3.1478640394 -3.1369479807 -2.4151898044 
   H    2.7782087713 -1.4502055562 -2.8922855393 
   H    4.8033154225 -1.4979909682 -1.3052048069 
   H    3.7661738064 -0.5006126719  1.2792025193 
   H    5.3993401860 -0.3272175431  0.5954979003 
   H    6.4064785087 -0.9859403667  2.8196720255 
   H    7.1356843991 -2.8968549099  4.2153890483 
   H    6.2044814333 -5.1836759216  3.7522237841 
   H    4.9752744318 -6.5949980756  2.5004480272 
   H    4.7019124588 -6.0368490600  0.8247615302 
   H    3.3987073632 -5.8576231820  2.0540222408 
   H    3.7567119685 -3.6999508371  0.7445780539 



