%chk=frag55-conf2.chk
#B3LYP/6-31G* Integral=(Grid=UltraFine) freq Opt pop=none

Optimization for frag55-conf2

0  1
   C    1.8202247620 -1.3494837284  0.0448837020 
   C    3.2341468334 -1.2805075645  2.0045101643 
   C    0.7624861002 -0.8282880187  0.7923839092 
   C    2.1761190891 -0.7593715191  2.7525732517 
   C    3.0698118210 -1.5721840858  0.6417229772 
   C    0.9487767816 -0.5363188982  2.1383440495 
   C    5.0533680916 -4.2921371460  0.7810571194 
   C    4.8639354706 -5.7838411331  0.7317911386 
   C    4.2076706886 -2.1579689980 -0.1562504321 
   N    4.2118930817 -3.6001484394 -0.0519641563 
   O    5.9066729546 -3.7588722706  1.4871327877 
   O   -0.1080220416 -0.0295658596  2.8343653679 
   H    1.6634551287 -1.5815607309 -1.0079238415 
   H    4.1924819946 -1.4627010822  2.4909174442 
   H   -0.2025220543 -0.6550978422  0.3214117885 
   H    2.3264284134 -0.5381804109  3.8065476418 
   H    5.4166936874 -6.1894822121 -0.1196624339 
   H    5.2404971123 -6.2301568985  1.6562843323 
   H    3.8047506809 -6.0371146202  0.6306332946 
   H    4.1019115448 -1.9038307667 -1.2167173624 
   H    5.1642093658 -1.7447720766  0.1829604357 
   H    3.5266020298 -4.1128973961 -0.5987357497 
   H    0.1762780100  0.1213105321  3.7590053082 



