%chk=frag3-conf1.chk
#B3LYP/6-31G* Integral=(Grid=UltraFine) freq Opt pop=none

Optimization for frag3-conf1

1  1
   C    4.4121928479  3.5996558616  0.4333239163 
   N    4.2364491950  2.5450659173 -0.5593279672 
   C    3.2804499216  2.7929046762 -1.6339390036 
   C    4.9992393867  1.3952351146 -0.4235497580 
   O    5.8483583220  1.2460962109  0.4580892254 
   C    4.7178022055  0.2010693730 -1.3510619281 
   H    3.6358821855  0.0571281915 -1.3817877410 
   N    5.2570670895 -1.0709719823 -0.7188882416 
   H    5.0192876720 -1.9133567050 -1.2574719079 
   H    6.2815699498 -1.0106878047 -0.6346213291 
   H    4.9105399324 -1.1663330259  0.2446219671 
   C    5.3542301743  0.3533536386 -2.7383140867 
   C    5.0020543521 -0.7498407999 -3.7150204810 
   C    3.7787991253 -1.4394365284 -3.6714325388 
   C    3.5029150597 -2.4629896453 -4.5771542015 
   C    4.4151396520 -2.7688048851 -5.5801966509 
   C    5.6055387670 -2.0535093513 -5.6764405275 
   C    5.9038128399 -1.0572953568 -4.7447506762 
   H    3.8158858005  4.4824433414  0.1871603454 
   H    5.4681929901  3.8777713574  0.4820956804 
   H    4.0982439384  3.2186290533  1.4107103493 
   H    2.7759477298  3.7539138431 -1.5091948331 
   H    2.5337143958  1.9954576630 -1.6566851741 
   H    3.8178794154  2.8133629563 -2.5830589407 
   H    6.4465208658  0.3909694125 -2.6161737548 
   H    5.0782502467  1.3016354122 -3.2052184334 
   H    2.9976633947 -1.2011034736 -2.9556426195 
   H    2.5629375990 -3.0081094505 -4.5169751531 
   H    4.1869908810 -3.5491559767 -6.3028890718 
   H    6.2981380506 -2.2675135068 -6.4882095034 
   H    6.8436752127 -0.5160122004 -4.8495468731 



