%chk=frag53-conf2.chk
#B3LYP/6-31G* Integral=(Grid=UltraFine) freq Opt pop=none

Optimization for frag53-conf2

0  1
   C   -0.1822341084 -2.1951858997  5.6645779610 
   C   -1.3563545942 -2.8836128712  5.9648542404 
   C   -1.1707916260 -1.5482211113  3.6073014736 
   C   -0.0711428821 -1.5121883154  4.4536671638 
   C   -2.3938827515 -2.8839614391  5.0456199646 
   C    1.9201488495  0.8053816557  5.8786606789 
   C    1.7608382702  2.2082338333  6.3983802795 
   C    1.1662564278 -0.7432234883  4.0929145813 
   N   -2.3228056431 -2.2129909992  3.8818323612 
   N   -3.5842850208 -3.5145730972  5.3254561424 
   N    1.1865001917  0.5465106964  4.7487473488 
   O    2.6244094372 -0.0303339530  6.4413018227 
   H    0.6383876204 -2.1906855106  6.3800721169 
   H   -1.4521512985 -3.4093356133  6.9101915359 
   H   -1.1607313156 -1.0242272615  2.6532170773 
   H    0.8662810922  2.2604854107  7.0245790482 
   H    2.6379225254  2.4786248207  6.9927525520 
   H    1.6678761244  2.9203236103  5.5734634399 
   H    2.0589160919 -1.3210470676  4.3580389023 
   H    1.2082222700 -0.5598610640  3.0135498047 
   H   -3.5556678772 -4.3821148872  5.8523135185 
   H   -4.2840452194 -3.4686417580  4.5906004906 
   H    0.6031497717  1.2827209234  4.3618831635 



