%chk=frag9-conf2.chk
#B3LYP/6-31G* Integral=(Grid=UltraFine) freq Opt pop=none

Optimization for frag9-conf2

0  1
   C    1.9928598404 -1.0616693497 -0.1090266407 
   C    0.8273558617 -1.0874810219  0.6546790600 
   C    3.2352852821 -0.9931940436  0.5186790824 
   C    0.9031470418 -1.0411523581  2.0476531982 
   C    3.3132455349 -0.9467805028  1.9115390778 
   C    2.1469750404 -0.9602167606  2.6894671917 
   C    2.3702142239 -2.5237345695  6.0733489990 
   C    2.4597606659 -3.9825158119  6.4291272163 
   C    2.2308871746 -0.9400205016  4.1926469803 
   N    2.3066022396 -2.2806527615  4.7258248329 
   O    2.3821451664 -1.6334753036  6.9211573601 
   H    1.9329646826 -1.0990201235 -1.1953896284 
   H   -0.1430255175 -1.1468389034  0.1645721644 
   H    4.1460576057 -0.9788716435 -0.0776949674 
   H   -0.0158967283 -1.0700100660  2.6324536800 
   H    4.2917017937 -0.9012707472  2.3890452385 
   H    3.5081849098 -4.2917885780  6.4163861275 
   H    2.0452952385 -4.1391663551  7.4288001060 
   H    1.8938763142 -4.5931248665  5.7198305130 
   H    3.1133222580 -0.3811846375  4.5262465477 
   H    1.3564953804 -0.4391975403  4.6250081062 
   H    2.3216688633 -3.0624921322  4.0766854286 



