%chk=frag54-conf0.chk
#B3LYP/6-31G* Integral=(Grid=UltraFine) freq Opt pop=none

Optimization for frag54-conf0

0  1
   C    2.1977557851 -0.8306054518 -1.0761070977 
   O    2.5026589267  0.0010973704  0.0410174646 
   C    3.1461823401 -0.6346450709  1.0693011613 
   C    3.9408133129  0.1718567802  1.8841042751 
   C    4.6600936055 -0.3889421120  2.9401610114 
   C    4.5982942300 -1.7630609727  3.1738593325 
   C    3.7986563136 -2.5843913959  2.3677638064 
   C    3.0456025710 -2.0010591656  1.3394158180 
   C    3.7654952558 -4.0750632599  2.5809709763 
   N    5.0537498907 -4.6630798771  2.2821034914 
   C    5.7554336205 -5.3920824825  3.2078799208 
   C    7.0743375869 -5.9261755383  2.7172323190 
   O    5.3582895679 -5.6072333014  4.3496873574 
   H    1.8643455120 -0.1909761583 -1.8978385076 
   H    1.3796442177 -1.5189078750 -0.8408316246 
   H    3.0846012783 -1.3786050489 -1.4161376483 
   H    4.0131963954  1.2384715629  1.6868358273 
   H    5.2795741320  0.2423146761  3.5720002428 
   H    5.1787797921 -2.1968328833  3.9863916121 
   H    2.3822351111 -2.6322018943  0.7573057755 
   H    3.0501149831 -4.5445329977  1.8959014972 
   H    3.4409200492 -4.3031958376  3.6008918684 
   H    5.4542281661 -4.4814288035  1.3716856943 
   H    7.2619031786 -5.6626575534  1.6728740021 
   H    7.0690386348 -7.0163467326  2.8040207718 
   H    7.8781575102 -5.5121353587  3.3320094644 



