%chk=frag48-conf0.chk
#B3LYP/6-31G* Integral=(Grid=UltraFine) freq Opt pop=none

Optimization for frag48-conf0

0  1
   C    2.8231010643  1.1454511393  3.2210477386 
   N    2.5594130273 -0.3042063671  3.0954221514 
   C    1.1654861514 -0.6284866945  3.4719488994 
   S    3.0315886547 -0.9734781793  1.6122834987 
   O    2.7429305741 -2.3872790904  1.6122013087 
   O    2.5354340504 -0.1184356300  0.5574015979 
   N    4.7086141734 -0.7604857658  1.6601491576 
   C    5.4264034058 -1.5581231639  2.6070886684 
   C    5.8116023968 -2.8639992308  2.2971344812 
   C    6.4757435443 -3.6382626781  3.2539217810 
   C    6.7569666788 -3.1004425132  4.5098104226 
   Cl    7.5676591031 -4.0532130113  5.6902661563 
   C    6.3781641359 -1.7963979021  4.8190531105 
   C    5.7006376892 -1.0306798347  3.8692435823 
   H    2.5954875986  1.4743154603  4.2400822847 
   H    2.2093544779  1.7211020625  2.5228213416 
   H    3.8772614367  1.3710023421  3.0427788903 
   H    0.9483274542 -0.2279857973  4.4681803209 
   H    1.0159103370 -1.7106074443  3.5242157606 
   H    0.4557987994 -0.1912915858  2.7627718750 
   H    5.0505902138 -0.8788440186  0.7066042329 
   H    5.5844950382 -3.2969574820  1.3265708430 
   H    6.7608654408 -4.6601696281  3.0181695998 
   H    6.5989679693 -1.3712271557  5.7940981144 
   H    5.3957063630 -0.0207086560  4.1212681854 



