%chk=frag37-conf0.chk
#B3LYP/6-31G* Integral=(Grid=UltraFine) freq Opt pop=none

Optimization for frag37-conf0

0  1
   C    7.7059741461 -0.3824396921  0.4209453062 
   N    6.6603469395 -1.3810860323  0.5229549460 
   C    7.0701869774 -2.7711067430  0.3248051620 
   C    5.3312665035 -1.1349287221  0.8461892674 
   O    4.5214552111 -2.0685905199  0.9139635228 
   C    4.8034532512  0.3083003441  1.1365308244 
   H    3.7166940892  0.1896233491  1.2189531140 
   N    4.9750421592  1.2620257752  0.0017839826 
   H    4.4896311569  2.1648297191  0.1428321477 
   H    5.9286147560  1.6171186738 -0.1492830106 
   C    4.4745097932  0.8862609697 -1.3872201509 
   C    4.6648879151  2.0989800587 -2.3395144918 
   O    4.3959367214  1.9221005995 -3.5473372842 
   O    5.1064370143  3.1008503574 -1.6908976123 
   C    5.3369188444  0.9877147454  2.4322969805 
   C    4.5936400337  2.2939108325  2.7936262474 
   C    3.1493366509  2.0382095030  3.2082009325 
   C    3.0858393079  1.0937957573  4.4035117538 
   C    3.9040421345 -0.1830956413  4.2097848871 
   C    5.3106429585  0.0723208902  3.6694728802 
   H    8.6843276888 -0.8469709760  0.2752497279 
   H    7.7509054675  0.2017366537  1.3358759871 
   H    7.4930780982  0.2603817146 -0.4344577736 
   H    8.0381385653 -2.8252348203 -0.1832182704 
   H    6.3336263956 -3.3079762403 -0.2805534622 
   H    7.1505937922 -3.2559317617  1.3029560098 
   H    3.4137918390  0.6397206697 -1.2911996253 
   H    5.0589038038  0.0289697177 -1.7272458980 
   H    6.3776973426  1.2807816523  2.2709667617 
   H    4.6290208116  3.0193436090  1.9755251925 
   H    5.1180569919  2.7751097455  3.6310366257 
   H    2.5770545495  1.6235794176  2.3714025293 
   H    2.6686605183  2.9886513055  3.4664546577 
   H    2.0414324970  0.8311936263  4.6074685164 
   H    3.4544528424  1.6244373695  5.2901327863 
   H    3.3706256532 -0.8601623291  3.5338955411 
   H    3.9827212411 -0.7006470227  5.1739262483 
   H    5.8089021285 -0.8814292619  3.4644600693 
   H    5.9027002397  0.5503931279  4.4621619782 



