%chk=frag43-conf0.chk
#B3LYP/6-31G* Integral=(Grid=UltraFine) freq Opt pop=none

Optimization for frag43-conf0

1  1
   N    2.2545382565 -0.1715386463  1.3442719024 
   C    2.5097056133 -0.1122340730  0.0222306870 
   N    2.0388073411  0.9814392646 -0.6085429124 
   H    2.1588347370  1.1374383549 -1.5977608082 
   H    1.5308724698  1.6982710865 -0.1079230555 
   N    3.2020599712 -1.0950015393 -0.6342642384 
   C    3.7237238992 -2.3201079437  0.0367350275 
   C    3.2244103720 -3.5766477702 -0.6680969329 
   C    3.5838011789 -3.5513168514 -2.1501101299 
   C    3.0571532700 -2.2828143874 -2.8141823830 
   C    3.5431283122 -1.0342104617 -2.0850637007 
   H    1.7383793045  0.5607627252  1.8130180734 
   H    2.5680775127 -0.9310301633  1.9292758161 
   H    3.4268298412 -2.3634394282  1.0846094533 
   H    4.8185035823 -2.2689126217  0.0096772452 
   H    2.1345834173 -3.6419264262 -0.5619299441 
   H    3.6532659642 -4.4664515872 -0.1948569449 
   H    3.1665130013 -4.4329193146 -2.6489982244 
   H    4.6735715463 -3.6013379958 -2.2647230844 
   H    1.9605352498 -2.3013903647 -2.8072256921 
   H    3.3765819233 -2.2511094473 -3.8615294590 
   H    3.1119209982 -0.1548864226 -2.5638103749 
   H    4.6329693803 -0.9425497197 -2.1610222015 



