%chk=frag37-conf0.chk
#B3LYP/6-31G* Integral=(Grid=UltraFine) freq Opt pop=none SCRF

Optimization for frag37-conf0

0  1
   C    2.9392852783 -5.0132737160 -2.5644013882 
   C    6.3345274925 -2.1761772633 -0.2576533854 
   C   -0.7950063944 -1.9933853149 -1.6764602661 
   C   -0.0683100000 -1.6070433855 -2.9591102600 
   C    0.1649061441 -2.0697131157 -0.4951226711 
   C    1.1021816730 -2.5458164215 -3.2476892471 
   C    1.3372350931 -3.0090284348 -0.7780768275 
   C    2.0880613327 -2.6161243916 -2.0667648315 
   C    2.3411021233 -6.9472479820 -3.9597604275 
   C    2.8618905544 -4.8298521042 -5.0959014893 
   C    4.9608669281 -2.0847172737 -0.9669941068 
   C    3.3158931732 -3.5119833946 -2.3818421364 
   N    2.7138445377 -5.5426335335 -3.8305096626 
   N    4.3256669044 -3.4179596901 -1.2657928467 
   O    6.8020815849 -1.1178745031  0.2519172728 
   O    2.8730552197 -5.7359237671 -1.5555003881 
   O    6.8609924316 -3.3349463940 -0.2599634528 
   H   -1.5844659805 -1.2635843754 -1.4647126198 
   H   -1.2854943275 -2.9651002884 -1.8124530315 
   H   -0.7705844641 -1.6258449554 -3.8001949787 
   H    0.3012819588 -0.5776374936 -2.8750078678 
   H    0.5478921533 -1.0669418573 -0.2688812613 
   H   -0.3742676973 -2.4131956100  0.3950137198 
   H    0.7034512758 -3.5421516895 -3.4708154202 
   H    1.6206355095 -2.1917002201 -4.1456952095 
   H    2.0105481148 -2.9869790077  0.0852063894 
   H    0.9528794885 -4.0324392319 -0.8605149388 
   H    2.4611530304 -1.5924803019 -1.9219290018 
   H    1.4089716673 -7.0132293701 -4.5289444923 
   H    2.1936271191 -7.4318056107 -2.9916634560 
   H    3.1355695724 -7.4714279175 -4.4993038177 
   H    3.6394493580 -5.3267188072 -5.6840395927 
   H    3.1354196072 -3.7846975327 -4.9773516655 
   H    1.9124794006 -4.8813018799 -5.6374902725 
   H    5.1040730476 -1.5740118027 -1.9245779514 
   H    4.2527909279 -1.5262469053 -0.3481337130 
   H    3.8523881435 -3.1407432556 -3.2560126781 
   H    5.1154460907 -4.0465030670 -1.4789664745 
   H    3.9478349686 -3.8423712254 -0.4112430811 



