%chk=frag1-conf1.chk
#B3LYP/6-31G* Integral=(Grid=UltraFine) freq Opt pop=none

Optimization for frag1-conf1

0  1
   C    4.9197250797 -0.7341732238 -3.5374739545 
   C    4.5598974951 -1.3240994173 -2.1971968362 
   O    3.6674424176 -2.1725960583 -2.1216008064 
   N    5.2219244420 -0.8379498297 -1.0763408074 
   C    6.3280157038  0.1110052450 -1.1336047841 
   C    4.7365825578 -1.2996162825  0.2468943586 
   H    3.6523388565 -1.2778391544  0.1878581688 
   C    5.0919526429 -0.3659490326  1.4115661657 
   C    5.2616071812 -2.7196745818  0.6018234585 
   O    6.4787113196 -2.8898940269  0.7532394608 
   N    4.3570275655 -3.7666286224  0.7839376355 
   C    2.9332861172 -3.7415650644  0.4695004263 
   C    4.8666914728 -5.0808179126  1.1496080272 
   H    4.3301701440 -1.2232793826 -4.3193206092 
   H    5.9750485597 -0.8943363038 -3.7686067164 
   H    4.6761277600  0.3322561188 -3.5447162339 
   H    6.6449872916  0.3350144643 -2.1522516221 
   H    7.1849894594 -0.2953570884 -0.5905678890 
   H    6.0033172154  1.0511519278 -0.6783066806 
   H    4.6793259172 -0.7469237541  2.3518079732 
   H    4.6803655866  0.6347804499  1.2431037909 
   H    6.1744197714 -0.2690881831  1.5502928289 
   H    2.5343144273 -2.7577721799  0.2446457720 
   H    2.3834492602 -4.1338707860  1.3304721520 
   H    2.7553178575 -4.3896307927 -0.3944316621 
   H    5.9330665304 -5.0730841943  1.3852724341 
   H    4.6926555140 -5.7732268690  0.3195027954 
   H    4.3181186519 -5.4333997296  2.0292124646 



