%chk=frag53-conf0.chk
#B3LYP/6-31G* Integral=(Grid=UltraFine) freq Opt pop=none

Optimization for frag53-conf0

0  1
   C    1.1997261810  0.0896578032 -0.0061911833 
   C    2.7017155772  0.0279728991  0.0583070349 
   O    3.3040085993 -0.6554332626  0.8806179542 
   N    3.3264729238  0.8071562365 -0.8831032769 
   C    4.7701427382  0.8685595023 -0.9733847266 
   C    5.1847884379  1.8169580902 -2.0574215308 
   C    5.1284469808  3.1980470811 -1.8688013810 
   C    5.4068189056  4.0503782368 -2.9337349249 
   C    5.6938926964  3.5040580202 -4.1751825653 
   N    5.9424181904  4.3347304529 -5.2641225549 
   N    5.7983566167  2.1799243276 -4.3758622451 
   C    5.5593183274  1.3671462720 -3.3175759406 
   H    0.7722113176 -0.5596121320  0.7633321337 
   H    0.8528737133 -0.2519531978 -0.9854725229 
   H    0.8599868748  1.1140879148  0.1703826989 
   H    2.7708007253  1.3376908225 -1.5424598641 
   H    5.1502021963 -0.1434228195 -1.1556860837 
   H    5.1687389520  1.1913494663 -0.0041551199 
   H    4.8577981606  3.6149466223 -0.9021966052 
   H    5.3732192239  5.1255371588 -2.7999615051 
   H    5.2620340986  5.0788592160 -5.3514427963 
   H    5.9912514407  3.7472111991 -6.0926388924 
   H    5.6699052366  0.3061072943 -3.5295066748 



