%chk=frag56-conf1.chk
#B3LYP/6-31G* Integral=(Grid=UltraFine) freq Opt pop=none

Optimization for frag56-conf1

0  1
   C    1.0343751773  1.3919590390  0.8943034108 
   C    2.5283577489  1.5517085190  0.8528259702 
   O    3.0661929621  2.6178427288  0.5728179344 
   N    3.2172835692  0.4027460806  1.1611361251 
   C    4.6624659056  0.3754851539  1.2223014888 
   C    5.1115303409  0.7014300747  2.6141831004 
   C    4.8994883457  1.8612437463  3.3425079415 
   C    5.5011135021  1.8153615123  4.6348187790 
   C    6.1622341764  0.6312904675  4.8262404135 
   Cl    7.0356061543  0.1614359951  6.2279414201 
   S    6.0638780070 -0.4190613527  3.5039884838 
   H    0.5608123967  2.3497248868  0.6589757475 
   H    0.7186613698  1.0816071777  1.8940253896 
   H    0.7183733531  0.6514927761  0.1550005657 
   H    2.7110351697 -0.4247530421  1.4455786572 
   H    5.0821102518  1.0957754133  0.5120709233 
   H    4.9756983307 -0.6280632918  0.9153761644 
   H    4.3362950359  2.7064202898  2.9609992841 
   H    5.4528584920  2.6108946224  5.3675118227 



